p cnf 7230 16
-369 -2652 -2828 0
-367 -2654 -2826 0
369 -2829 0
367 -2827 0
2832 2833 0
2110 -2833 0
-2110 -2832 0
2830 2831 0
2108 -2831 0
-2108 -2830 0
2828 2829 0
2826 2827 0
2652 -2829 0
2654 -2827 0
2824 2825 0
-2824 -2825 0
